size = 10;
tiles = 10;
expressions = [
    "( ([2 3 4 5 6 7 8 9 10 11]* 1{3} [2 3 4 5 6 7 8 9 10 11]{1} [2 3 4 5 6 7 8 9 10 11] [2 3 4 5 6 7 8 9 10 11]{6} 1{2}  [2 3 4 5 6 7 8 9 10 11]*) | ([2 3 4 5 6 7 8 9 10 11]* 1{2} [2 3 4 5 6 7 8 9 10 11] [2 3 4 5 6 7 8 9 10 11]{8} 1{2} [2 3 4 5 6 7 8 9 10 11] [2 3 4 5 6 7 8 9 10 11]{9} 1{1}  [2 3 4 5 6 7 8 9 10 11]*) | ([2 3 4 5 6 7 8 9 10 11]* 1{2} [2 3 4 5 6 7 8 9 10 11]{6} [2 3 4 5 6 7 8 9 10 11] [2 3 4 5 6 7 8 9 10 11]{1} 1{3}  [2 3 4 5 6 7 8 9 10 11]*) | ([2 3 4 5 6 7 8 9 10 11]* 1{1} [2 3 4 5 6 7 8 9 10 11]{9} [2 3 4 5 6 7 8 9 10 11] 1{2} [2 3 4 5 6 7 8 9 10 11]{8} [2 3 4 5 6 7 8 9 10 11] 1{2}  [2 3 4 5 6 7 8 9 10 11]*) | ([2 3 4 5 6 7 8 9 10 11]* 1{3} [2 3 4 5 6 7 8 9 10 11]{6} [2 3 4 5 6 7 8 9 10 11] [2 3 4 5 6 7 8 9 10 11]{2} 1{2}  [2 3 4 5 6 7 8 9 10 11]*) | ([2 3 4 5 6 7 8 9 10 11]* 1{2} [2 3 4 5 6 7 8 9 10 11]{8} [2 3 4 5 6 7 8 9 10 11] 1{2} [2 3 4 5 6 7 8 9 10 11]{8} [2 3 4 5 6 7 8 9 10 11] 1{1}  [2 3 4 5 6 7 8 9 10 11]*) | ([2 3 4 5 6 7 8 9 10 11]* 1{2} [2 3 4 5 6 7 8 9 10 11]{2} [2 3 4 5 6 7 8 9 10 11] [2 3 4 5 6 7 8 9 10 11]{6} 1{3}  [2 3 4 5 6 7 8 9 10 11]*) | ([2 3 4 5 6 7 8 9 10 11]* 1{1} [2 3 4 5 6 7 8 9 10 11] [2 3 4 5 6 7 8 9 10 11]{8} 1{2} [2 3 4 5 6 7 8 9 10 11] [2 3 4 5 6 7 8 9 10 11]{8} 1{2}  [2 3 4 5 6 7 8 9 10 11]*) )",
    "( ([1 3 4 5 6 7 8 9 10 11]* 2{1} [1 3 4 5 6 7 8 9 10 11] [1 3 4 5 6 7 8 9 10 11]{8} 2{2} [1 3 4 5 6 7 8 9 10 11] [1 3 4 5 6 7 8 9 10 11]{6} 2{4} [1 3 4 5 6 7 8 9 10 11] [1 3 4 5 6 7 8 9 10 11]{6} 2{4} [1 3 4 5 6 7 8 9 10 11] [1 3 4 5 6 7 8 9 10 11]{7} 2{3} [1 3 4 5 6 7 8 9 10 11] [1 3 4 5 6 7 8 9 10 11]{6} 2{4} [1 3 4 5 6 7 8 9 10 11] [1 3 4 5 6 7 8 9 10 11]{7} 2{2}  [1 3 4 5 6 7 8 9 10 11]*) | ([1 3 4 5 6 7 8 9 10 11]* 2{1} [1 3 4 5 6 7 8 9 10 11]{1} 2{2} [1 3 4 5 6 7 8 9 10 11]{2} [1 3 4 5 6 7 8 9 10 11] [1 3 4 5 6 7 8 9 10 11]{3} 2{5} [1 3 4 5 6 7 8 9 10 11]{2} [1 3 4 5 6 7 8 9 10 11] [1 3 4 5 6 7 8 9 10 11]{3} 2{6} [1 3 4 5 6 7 8 9 10 11]{1} [1 3 4 5 6 7 8 9 10 11] [1 3 4 5 6 7 8 9 10 11]{4} 2{6}  [1 3 4 5 6 7 8 9 10 11]*) | ([1 3 4 5 6 7 8 9 10 11]* 2{2} [1 3 4 5 6 7 8 9 10 11]{7} [1 3 4 5 6 7 8 9 10 11] 2{4} [1 3 4 5 6 7 8 9 10 11]{6} [1 3 4 5 6 7 8 9 10 11] 2{3} [1 3 4 5 6 7 8 9 10 11]{7} [1 3 4 5 6 7 8 9 10 11] 2{4} [1 3 4 5 6 7 8 9 10 11]{6} [1 3 4 5 6 7 8 9 10 11] 2{4} [1 3 4 5 6 7 8 9 10 11]{6} [1 3 4 5 6 7 8 9 10 11] 2{2} [1 3 4 5 6 7 8 9 10 11]{8} [1 3 4 5 6 7 8 9 10 11] 2{1}  [1 3 4 5 6 7 8 9 10 11]*) | ([1 3 4 5 6 7 8 9 10 11]* 2{6} [1 3 4 5 6 7 8 9 10 11]{4} [1 3 4 5 6 7 8 9 10 11] [1 3 4 5 6 7 8 9 10 11]{1} 2{6} [1 3 4 5 6 7 8 9 10 11]{3} [1 3 4 5 6 7 8 9 10 11] [1 3 4 5 6 7 8 9 10 11]{2} 2{5} [1 3 4 5 6 7 8 9 10 11]{3} [1 3 4 5 6 7 8 9 10 11] [1 3 4 5 6 7 8 9 10 11]{2} 2{2} [1 3 4 5 6 7 8 9 10 11]{1} 2{1}  [1 3 4 5 6 7 8 9 10 11]*) | ([1 3 4 5 6 7 8 9 10 11]* 2{1} [1 3 4 5 6 7 8 9 10 11]{9} [1 3 4 5 6 7 8 9 10 11] 2{2} [1 3 4 5 6 7 8 9 10 11]{8} [1 3 4 5 6 7 8 9 10 11] 2{4} [1 3 4 5 6 7 8 9 10 11]{6} [1 3 4 5 6 7 8 9 10 11] 2{4} [1 3 4 5 6 7 8 9 10 11]{6} [1 3 4 5 6 7 8 9 10 11] 2{3} [1 3 4 5 6 7 8 9 10 11]{7} [1 3 4 5 6 7 8 9 10 11] 2{4} [1 3 4 5 6 7 8 9 10 11]{6} [1 3 4 5 6 7 8 9 10 11] [1 3 4 5 6 7 8 9 10 11]{1} 2{2}  [1 3 4 5 6 7 8 9 10 11]*) | ([1 3 4 5 6 7 8 9 10 11]* 2{2} [1 3 4 5 6 7 8 9 10 11]{1} 2{1} [1 3 4 5 6 7 8 9 10 11]{4} [1 3 4 5 6 7 8 9 10 11] [1 3 4 5 6 7 8 9 10 11]{2} 2{5} [1 3 4 5 6 7 8 9 10 11]{3} [1 3 4 5 6 7 8 9 10 11] [1 3 4 5 6 7 8 9 10 11]{1} 2{6} [1 3 4 5 6 7 8 9 10 11]{3} [1 3 4 5 6 7 8 9 10 11] 2{6}  [1 3 4 5 6 7 8 9 10 11]*) | ([1 3 4 5 6 7 8 9 10 11]* 2{2} [1 3 4 5 6 7 8 9 10 11]{1} [1 3 4 5 6 7 8 9 10 11] [1 3 4 5 6 7 8 9 10 11]{6} 2{4} [1 3 4 5 6 7 8 9 10 11] [1 3 4 5 6 7 8 9 10 11]{7} 2{3} [1 3 4 5 6 7 8 9 10 11] [1 3 4 5 6 7 8 9 10 11]{6} 2{4} [1 3 4 5 6 7 8 9 10 11] [1 3 4 5 6 7 8 9 10 11]{6} 2{4} [1 3 4 5 6 7 8 9 10 11] [1 3 4 5 6 7 8 9 10 11]{8} 2{2} [1 3 4 5 6 7 8 9 10 11] [1 3 4 5 6 7 8 9 10 11]{9} 2{1}  [1 3 4 5 6 7 8 9 10 11]*) | ([1 3 4 5 6 7 8 9 10 11]* 2{6} [1 3 4 5 6 7 8 9 10 11] [1 3 4 5 6 7 8 9 10 11]{3} 2{6} [1 3 4 5 6 7 8 9 10 11]{1} [1 3 4 5 6 7 8 9 10 11] [1 3 4 5 6 7 8 9 10 11]{3} 2{5} [1 3 4 5 6 7 8 9 10 11]{2} [1 3 4 5 6 7 8 9 10 11] [1 3 4 5 6 7 8 9 10 11]{4} 2{1} [1 3 4 5 6 7 8 9 10 11]{1} 2{2}  [1 3 4 5 6 7 8 9 10 11]*) )",
    "( ([1 2 4 5 6 7 8 9 10 11]* 3{1}  [1 2 4 5 6 7 8 9 10 11]*) | ([1 2 4 5 6 7 8 9 10 11]* 3{1}  [1 2 4 5 6 7 8 9 10 11]*) | ([1 2 4 5 6 7 8 9 10 11]* 3{1}  [1 2 4 5 6 7 8 9 10 11]*) | ([1 2 4 5 6 7 8 9 10 11]* 3{1}  [1 2 4 5 6 7 8 9 10 11]*) | ([1 2 4 5 6 7 8 9 10 11]* 3{1}  [1 2 4 5 6 7 8 9 10 11]*) | ([1 2 4 5 6 7 8 9 10 11]* 3{1}  [1 2 4 5 6 7 8 9 10 11]*) | ([1 2 4 5 6 7 8 9 10 11]* 3{1}  [1 2 4 5 6 7 8 9 10 11]*) | ([1 2 4 5 6 7 8 9 10 11]* 3{1}  [1 2 4 5 6 7 8 9 10 11]*) )",
    "( ([1 2 3 5 6 7 8 9 10 11]* 4{1} [1 2 3 5 6 7 8 9 10 11]{8} [1 2 3 5 6 7 8 9 10 11] [1 2 3 5 6 7 8 9 10 11]{1} 4{1}  [1 2 3 5 6 7 8 9 10 11]*) | ([1 2 3 5 6 7 8 9 10 11]* 4{2}  [1 2 3 5 6 7 8 9 10 11]*) | ([1 2 3 5 6 7 8 9 10 11]* 4{1} [1 2 3 5 6 7 8 9 10 11]{1} [1 2 3 5 6 7 8 9 10 11] [1 2 3 5 6 7 8 9 10 11]{8} 4{1}  [1 2 3 5 6 7 8 9 10 11]*) | ([1 2 3 5 6 7 8 9 10 11]* 4{2}  [1 2 3 5 6 7 8 9 10 11]*) | ([1 2 3 5 6 7 8 9 10 11]* 4{1} [1 2 3 5 6 7 8 9 10 11]{1} [1 2 3 5 6 7 8 9 10 11] [1 2 3 5 6 7 8 9 10 11]{8} 4{1}  [1 2 3 5 6 7 8 9 10 11]*) | ([1 2 3 5 6 7 8 9 10 11]* 4{2}  [1 2 3 5 6 7 8 9 10 11]*) | ([1 2 3 5 6 7 8 9 10 11]* 4{1} [1 2 3 5 6 7 8 9 10 11]{8} [1 2 3 5 6 7 8 9 10 11] [1 2 3 5 6 7 8 9 10 11]{1} 4{1}  [1 2 3 5 6 7 8 9 10 11]*) | ([1 2 3 5 6 7 8 9 10 11]* 4{2}  [1 2 3 5 6 7 8 9 10 11]*) )",
    "( ([1 2 3 4 6 7 8 9 10 11]* 5{1} [1 2 3 4 6 7 8 9 10 11]{9} [1 2 3 4 6 7 8 9 10 11] 5{1}  [1 2 3 4 6 7 8 9 10 11]*) | ([1 2 3 4 6 7 8 9 10 11]* 5{2}  [1 2 3 4 6 7 8 9 10 11]*) | ([1 2 3 4 6 7 8 9 10 11]* 5{1} [1 2 3 4 6 7 8 9 10 11] [1 2 3 4 6 7 8 9 10 11]{9} 5{1}  [1 2 3 4 6 7 8 9 10 11]*) | ([1 2 3 4 6 7 8 9 10 11]* 5{2}  [1 2 3 4 6 7 8 9 10 11]*) | ([1 2 3 4 6 7 8 9 10 11]* 5{1} [1 2 3 4 6 7 8 9 10 11] [1 2 3 4 6 7 8 9 10 11]{9} 5{1}  [1 2 3 4 6 7 8 9 10 11]*) | ([1 2 3 4 6 7 8 9 10 11]* 5{2}  [1 2 3 4 6 7 8 9 10 11]*) | ([1 2 3 4 6 7 8 9 10 11]* 5{1} [1 2 3 4 6 7 8 9 10 11]{9} [1 2 3 4 6 7 8 9 10 11] 5{1}  [1 2 3 4 6 7 8 9 10 11]*) | ([1 2 3 4 6 7 8 9 10 11]* 5{2}  [1 2 3 4 6 7 8 9 10 11]*) )",
    "( ([1 2 3 4 5 7 8 9 10 11]* 6{1} [1 2 3 4 5 7 8 9 10 11]{9} [1 2 3 4 5 7 8 9 10 11] 6{3} [1 2 3 4 5 7 8 9 10 11]{7} [1 2 3 4 5 7 8 9 10 11] 6{1} [1 2 3 4 5 7 8 9 10 11]{9} [1 2 3 4 5 7 8 9 10 11] 6{1}  [1 2 3 4 5 7 8 9 10 11]*) | ([1 2 3 4 5 7 8 9 10 11]* 6{4} [1 2 3 4 5 7 8 9 10 11]{6} [1 2 3 4 5 7 8 9 10 11] [1 2 3 4 5 7 8 9 10 11]{2} 6{1} [1 2 3 4 5 7 8 9 10 11]{7} [1 2 3 4 5 7 8 9 10 11] [1 2 3 4 5 7 8 9 10 11]{2} 6{1}  [1 2 3 4 5 7 8 9 10 11]*) | ([1 2 3 4 5 7 8 9 10 11]* 6{1} [1 2 3 4 5 7 8 9 10 11] [1 2 3 4 5 7 8 9 10 11]{9} 6{1} [1 2 3 4 5 7 8 9 10 11] [1 2 3 4 5 7 8 9 10 11]{7} 6{3} [1 2 3 4 5 7 8 9 10 11] [1 2 3 4 5 7 8 9 10 11]{9} 6{1}  [1 2 3 4 5 7 8 9 10 11]*) | ([1 2 3 4 5 7 8 9 10 11]* 6{1} [1 2 3 4 5 7 8 9 10 11]{2} [1 2 3 4 5 7 8 9 10 11] [1 2 3 4 5 7 8 9 10 11]{7} 6{1} [1 2 3 4 5 7 8 9 10 11]{2} [1 2 3 4 5 7 8 9 10 11] [1 2 3 4 5 7 8 9 10 11]{6} 6{4}  [1 2 3 4 5 7 8 9 10 11]*) | ([1 2 3 4 5 7 8 9 10 11]* 6{1} [1 2 3 4 5 7 8 9 10 11] [1 2 3 4 5 7 8 9 10 11]{7} 6{3} [1 2 3 4 5 7 8 9 10 11] [1 2 3 4 5 7 8 9 10 11]{9} 6{1} [1 2 3 4 5 7 8 9 10 11] [1 2 3 4 5 7 8 9 10 11]{9} 6{1}  [1 2 3 4 5 7 8 9 10 11]*) | ([1 2 3 4 5 7 8 9 10 11]* 6{4} [1 2 3 4 5 7 8 9 10 11] [1 2 3 4 5 7 8 9 10 11]{7} 6{1} [1 2 3 4 5 7 8 9 10 11]{2} [1 2 3 4 5 7 8 9 10 11] [1 2 3 4 5 7 8 9 10 11]{7} 6{1}  [1 2 3 4 5 7 8 9 10 11]*) | ([1 2 3 4 5 7 8 9 10 11]* 6{1} [1 2 3 4 5 7 8 9 10 11]{9} [1 2 3 4 5 7 8 9 10 11] 6{1} [1 2 3 4 5 7 8 9 10 11]{9} [1 2 3 4 5 7 8 9 10 11] 6{3} [1 2 3 4 5 7 8 9 10 11]{7} [1 2 3 4 5 7 8 9 10 11] 6{1}  [1 2 3 4 5 7 8 9 10 11]*) | ([1 2 3 4 5 7 8 9 10 11]* 6{1} [1 2 3 4 5 7 8 9 10 11]{7} [1 2 3 4 5 7 8 9 10 11] [1 2 3 4 5 7 8 9 10 11]{2} 6{1} [1 2 3 4 5 7 8 9 10 11]{7} [1 2 3 4 5 7 8 9 10 11] 6{4}  [1 2 3 4 5 7 8 9 10 11]*) )",
    "( ([1 2 3 4 5 6 8 9 10 11]* 7{2} [1 2 3 4 5 6 8 9 10 11]{5} [1 2 3 4 5 6 8 9 10 11] [1 2 3 4 5 6 8 9 10 11]{3} 7{4} [1 2 3 4 5 6 8 9 10 11]{3} [1 2 3 4 5 6 8 9 10 11] [1 2 3 4 5 6 8 9 10 11]{3} 7{2}  [1 2 3 4 5 6 8 9 10 11]*) | ([1 2 3 4 5 6 8 9 10 11]* 7{3} [1 2 3 4 5 6 8 9 10 11]{3} [1 2 3 4 5 6 8 9 10 11] [1 2 3 4 5 6 8 9 10 11]{4} 7{3} [1 2 3 4 5 6 8 9 10 11]{3} [1 2 3 4 5 6 8 9 10 11] [1 2 3 4 5 6 8 9 10 11]{5} 7{1} [1 2 3 4 5 6 8 9 10 11]{4} [1 2 3 4 5 6 8 9 10 11] [1 2 3 4 5 6 8 9 10 11]{5} 7{1}  [1 2 3 4 5 6 8 9 10 11]*) | ([1 2 3 4 5 6 8 9 10 11]* 7{2} [1 2 3 4 5 6 8 9 10 11]{3} [1 2 3 4 5 6 8 9 10 11] [1 2 3 4 5 6 8 9 10 11]{3} 7{4} [1 2 3 4 5 6 8 9 10 11]{3} [1 2 3 4 5 6 8 9 10 11] [1 2 3 4 5 6 8 9 10 11]{5} 7{2}  [1 2 3 4 5 6 8 9 10 11]*) | ([1 2 3 4 5 6 8 9 10 11]* 7{1} [1 2 3 4 5 6 8 9 10 11]{5} [1 2 3 4 5 6 8 9 10 11] [1 2 3 4 5 6 8 9 10 11]{4} 7{1} [1 2 3 4 5 6 8 9 10 11]{5} [1 2 3 4 5 6 8 9 10 11] [1 2 3 4 5 6 8 9 10 11]{3} 7{3} [1 2 3 4 5 6 8 9 10 11]{4} [1 2 3 4 5 6 8 9 10 11] [1 2 3 4 5 6 8 9 10 11]{3} 7{3}  [1 2 3 4 5 6 8 9 10 11]*) | ([1 2 3 4 5 6 8 9 10 11]* 7{2} [1 2 3 4 5 6 8 9 10 11]{3} [1 2 3 4 5 6 8 9 10 11] [1 2 3 4 5 6 8 9 10 11]{3} 7{4} [1 2 3 4 5 6 8 9 10 11]{3} [1 2 3 4 5 6 8 9 10 11] [1 2 3 4 5 6 8 9 10 11]{5} 7{2}  [1 2 3 4 5 6 8 9 10 11]*) | ([1 2 3 4 5 6 8 9 10 11]* 7{3} [1 2 3 4 5 6 8 9 10 11]{4} [1 2 3 4 5 6 8 9 10 11] [1 2 3 4 5 6 8 9 10 11]{3} 7{3} [1 2 3 4 5 6 8 9 10 11]{4} [1 2 3 4 5 6 8 9 10 11] [1 2 3 4 5 6 8 9 10 11]{4} 7{1} [1 2 3 4 5 6 8 9 10 11]{5} [1 2 3 4 5 6 8 9 10 11] [1 2 3 4 5 6 8 9 10 11]{4} 7{1}  [1 2 3 4 5 6 8 9 10 11]*) | ([1 2 3 4 5 6 8 9 10 11]* 7{2} [1 2 3 4 5 6 8 9 10 11]{5} [1 2 3 4 5 6 8 9 10 11] [1 2 3 4 5 6 8 9 10 11]{3} 7{4} [1 2 3 4 5 6 8 9 10 11]{3} [1 2 3 4 5 6 8 9 10 11] [1 2 3 4 5 6 8 9 10 11]{3} 7{2}  [1 2 3 4 5 6 8 9 10 11]*) | ([1 2 3 4 5 6 8 9 10 11]* 7{1} [1 2 3 4 5 6 8 9 10 11]{4} [1 2 3 4 5 6 8 9 10 11] [1 2 3 4 5 6 8 9 10 11]{5} 7{1} [1 2 3 4 5 6 8 9 10 11]{4} [1 2 3 4 5 6 8 9 10 11] [1 2 3 4 5 6 8 9 10 11]{4} 7{3} [1 2 3 4 5 6 8 9 10 11]{3} [1 2 3 4 5 6 8 9 10 11] [1 2 3 4 5 6 8 9 10 11]{4} 7{3}  [1 2 3 4 5 6 8 9 10 11]*) )",
    "( ([1 2 3 4 5 6 7 9 10 11]* 8{2} [1 2 3 4 5 6 7 9 10 11]{3} 8{1} [1 2 3 4 5 6 7 9 10 11]{4} [1 2 3 4 5 6 7 9 10 11] [1 2 3 4 5 6 7 9 10 11]{1} 8{6} [1 2 3 4 5 6 7 9 10 11]{2} 8{1} [1 2 3 4 5 6 7 9 10 11] [1 2 3 4 5 6 7 9 10 11]{3} 8{7} [1 2 3 4 5 6 7 9 10 11] [1 2 3 4 5 6 7 9 10 11]{1} 8{9} [1 2 3 4 5 6 7 9 10 11] [1 2 3 4 5 6 7 9 10 11]{1} 8{9}  [1 2 3 4 5 6 7 9 10 11]*) | ([1 2 3 4 5 6 7 9 10 11]* 8{1} [1 2 3 4 5 6 7 9 10 11]{5} [1 2 3 4 5 6 7 9 10 11] 8{2} [1 2 3 4 5 6 7 9 10 11]{1} 8{2} [1 2 3 4 5 6 7 9 10 11]{5} [1 2 3 4 5 6 7 9 10 11] 8{2} [1 2 3 4 5 6 7 9 10 11]{1} 8{1} [1 2 3 4 5 6 7 9 10 11]{6} [1 2 3 4 5 6 7 9 10 11] 8{4} [1 2 3 4 5 6 7 9 10 11]{6} [1 2 3 4 5 6 7 9 10 11] 8{4} [1 2 3 4 5 6 7 9 10 11]{6} [1 2 3 4 5 6 7 9 10 11] 8{5} [1 2 3 4 5 6 7 9 10 11]{5} [1 2 3 4 5 6 7 9 10 11] 8{4} [1 2 3 4 5 6 7 9 10 11]{6} [1 2 3 4 5 6 7 9 10 11] 8{3} [1 2 3 4 5 6 7 9 10 11]{7} [1 2 3 4 5 6 7 9 10 11] 8{3} [1 2 3 4 5 6 7 9 10 11]{7} [1 2 3 4 5 6 7 9 10 11] 8{4}  [1 2 3 4 5 6 7 9 10 11]*) | ([1 2 3 4 5 6 7 9 10 11]* 8{9} [1 2 3 4 5 6 7 9 10 11]{1} [1 2 3 4 5 6 7 9 10 11] 8{9} [1 2 3 4 5 6 7 9 10 11]{1} [1 2 3 4 5 6 7 9 10 11] 8{7} [1 2 3 4 5 6 7 9 10 11]{3} [1 2 3 4 5 6 7 9 10 11] 8{1} [1 2 3 4 5 6 7 9 10 11]{2} 8{6} [1 2 3 4 5 6 7 9 10 11]{1} [1 2 3 4 5 6 7 9 10 11] [1 2 3 4 5 6 7 9 10 11]{4} 8{1} [1 2 3 4 5 6 7 9 10 11]{3} 8{2}  [1 2 3 4 5 6 7 9 10 11]*) | ([1 2 3 4 5 6 7 9 10 11]* 8{4} [1 2 3 4 5 6 7 9 10 11] [1 2 3 4 5 6 7 9 10 11]{7} 8{3} [1 2 3 4 5 6 7 9 10 11] [1 2 3 4 5 6 7 9 10 11]{7} 8{3} [1 2 3 4 5 6 7 9 10 11] [1 2 3 4 5 6 7 9 10 11]{6} 8{4} [1 2 3 4 5 6 7 9 10 11] [1 2 3 4 5 6 7 9 10 11]{5} 8{5} [1 2 3 4 5 6 7 9 10 11] [1 2 3 4 5 6 7 9 10 11]{6} 8{4} [1 2 3 4 5 6 7 9 10 11] [1 2 3 4 5 6 7 9 10 11]{6} 8{4} [1 2 3 4 5 6 7 9 10 11] [1 2 3 4 5 6 7 9 10 11]{6} 8{1} [1 2 3 4 5 6 7 9 10 11]{1} 8{2} [1 2 3 4 5 6 7 9 10 11] [1 2 3 4 5 6 7 9 10 11]{5} 8{2} [1 2 3 4 5 6 7 9 10 11]{1} 8{2} [1 2 3 4 5 6 7 9 10 11] [1 2 3 4 5 6 7 9 10 11]{5} 8{1}  [1 2 3 4 5 6 7 9 10 11]*) | ([1 2 3 4 5 6 7 9 10 11]* 8{1} [1 2 3 4 5 6 7 9 10 11]{3} 8{2} [1 2 3 4 5 6 7 9 10 11] 8{1} [1 2 3 4 5 6 7 9 10 11]{2} 8{6} [1 2 3 4 5 6 7 9 10 11]{1} [1 2 3 4 5 6 7 9 10 11] 8{7} [1 2 3 4 5 6 7 9 10 11]{3} [1 2 3 4 5 6 7 9 10 11] 8{9} [1 2 3 4 5 6 7 9 10 11]{1} [1 2 3 4 5 6 7 9 10 11] 8{9}  [1 2 3 4 5 6 7 9 10 11]*) | ([1 2 3 4 5 6 7 9 10 11]* 8{1} [1 2 3 4 5 6 7 9 10 11]{4} [1 2 3 4 5 6 7 9 10 11] [1 2 3 4 5 6 7 9 10 11]{5} 8{2} [1 2 3 4 5 6 7 9 10 11]{1} 8{2} [1 2 3 4 5 6 7 9 10 11] [1 2 3 4 5 6 7 9 10 11]{6} 8{1} [1 2 3 4 5 6 7 9 10 11]{1} 8{2} [1 2 3 4 5 6 7 9 10 11] [1 2 3 4 5 6 7 9 10 11]{6} 8{4} [1 2 3 4 5 6 7 9 10 11] [1 2 3 4 5 6 7 9 10 11]{6} 8{4} [1 2 3 4 5 6 7 9 10 11] [1 2 3 4 5 6 7 9 10 11]{5} 8{5} [1 2 3 4 5 6 7 9 10 11] [1 2 3 4 5 6 7 9 10 11]{6} 8{4} [1 2 3 4 5 6 7 9 10 11] [1 2 3 4 5 6 7 9 10 11]{7} 8{3} [1 2 3 4 5 6 7 9 10 11] [1 2 3 4 5 6 7 9 10 11]{7} 8{3} [1 2 3 4 5 6 7 9 10 11] [1 2 3 4 5 6 7 9 10 11]{6} 8{4}  [1 2 3 4 5 6 7 9 10 11]*) | ([1 2 3 4 5 6 7 9 10 11]* 8{9} [1 2 3 4 5 6 7 9 10 11] [1 2 3 4 5 6 7 9 10 11]{1} 8{9} [1 2 3 4 5 6 7 9 10 11] [1 2 3 4 5 6 7 9 10 11]{3} 8{7} [1 2 3 4 5 6 7 9 10 11] [1 2 3 4 5 6 7 9 10 11]{1} 8{6} [1 2 3 4 5 6 7 9 10 11]{2} 8{1} [1 2 3 4 5 6 7 9 10 11] 8{2} [1 2 3 4 5 6 7 9 10 11]{3} 8{1}  [1 2 3 4 5 6 7 9 10 11]*) | ([1 2 3 4 5 6 7 9 10 11]* 8{4} [1 2 3 4 5 6 7 9 10 11]{6} [1 2 3 4 5 6 7 9 10 11] 8{3} [1 2 3 4 5 6 7 9 10 11]{7} [1 2 3 4 5 6 7 9 10 11] 8{3} [1 2 3 4 5 6 7 9 10 11]{7} [1 2 3 4 5 6 7 9 10 11] 8{4} [1 2 3 4 5 6 7 9 10 11]{6} [1 2 3 4 5 6 7 9 10 11] 8{5} [1 2 3 4 5 6 7 9 10 11]{5} [1 2 3 4 5 6 7 9 10 11] 8{4} [1 2 3 4 5 6 7 9 10 11]{6} [1 2 3 4 5 6 7 9 10 11] 8{4} [1 2 3 4 5 6 7 9 10 11]{6} [1 2 3 4 5 6 7 9 10 11] 8{2} [1 2 3 4 5 6 7 9 10 11]{1} 8{1} [1 2 3 4 5 6 7 9 10 11]{6} [1 2 3 4 5 6 7 9 10 11] 8{2} [1 2 3 4 5 6 7 9 10 11]{1} 8{2} [1 2 3 4 5 6 7 9 10 11]{5} [1 2 3 4 5 6 7 9 10 11] [1 2 3 4 5 6 7 9 10 11]{4} 8{1}  [1 2 3 4 5 6 7 9 10 11]*) )",
    "( ([1 2 3 4 5 6 7 8 10 11]* 9{2}  [1 2 3 4 5 6 7 8 10 11]*) | ([1 2 3 4 5 6 7 8 10 11]* 9{1} [1 2 3 4 5 6 7 8 10 11]{2} [1 2 3 4 5 6 7 8 10 11] [1 2 3 4 5 6 7 8 10 11]{7} 9{1}  [1 2 3 4 5 6 7 8 10 11]*) | ([1 2 3 4 5 6 7 8 10 11]* 9{2}  [1 2 3 4 5 6 7 8 10 11]*) | ([1 2 3 4 5 6 7 8 10 11]* 9{1} [1 2 3 4 5 6 7 8 10 11]{7} [1 2 3 4 5 6 7 8 10 11] [1 2 3 4 5 6 7 8 10 11]{2} 9{1}  [1 2 3 4 5 6 7 8 10 11]*) | ([1 2 3 4 5 6 7 8 10 11]* 9{2}  [1 2 3 4 5 6 7 8 10 11]*) | ([1 2 3 4 5 6 7 8 10 11]* 9{1} [1 2 3 4 5 6 7 8 10 11]{7} [1 2 3 4 5 6 7 8 10 11] [1 2 3 4 5 6 7 8 10 11]{2} 9{1}  [1 2 3 4 5 6 7 8 10 11]*) | ([1 2 3 4 5 6 7 8 10 11]* 9{2}  [1 2 3 4 5 6 7 8 10 11]*) | ([1 2 3 4 5 6 7 8 10 11]* 9{1} [1 2 3 4 5 6 7 8 10 11]{2} [1 2 3 4 5 6 7 8 10 11] [1 2 3 4 5 6 7 8 10 11]{7} 9{1}  [1 2 3 4 5 6 7 8 10 11]*) )",
    "( ([1 2 3 4 5 6 7 8 9 11]* 10{4} [1 2 3 4 5 6 7 8 9 11]{4} [1 2 3 4 5 6 7 8 9 11] [1 2 3 4 5 6 7 8 9 11]{2} 10{4} [1 2 3 4 5 6 7 8 9 11]{4} [1 2 3 4 5 6 7 8 9 11] [1 2 3 4 5 6 7 8 9 11]{2} 10{4} [1 2 3 4 5 6 7 8 9 11]{4} [1 2 3 4 5 6 7 8 9 11] 10{3} [1 2 3 4 5 6 7 8 9 11]{7} [1 2 3 4 5 6 7 8 9 11] 10{3} [1 2 3 4 5 6 7 8 9 11]{7} [1 2 3 4 5 6 7 8 9 11] [1 2 3 4 5 6 7 8 9 11]{2} 10{1}  [1 2 3 4 5 6 7 8 9 11]*) | ([1 2 3 4 5 6 7 8 9 11]* 10{2} [1 2 3 4 5 6 7 8 9 11]{3} [1 2 3 4 5 6 7 8 9 11] [1 2 3 4 5 6 7 8 9 11]{5} 10{2} [1 2 3 4 5 6 7 8 9 11]{3} [1 2 3 4 5 6 7 8 9 11] [1 2 3 4 5 6 7 8 9 11]{4} 10{6} [1 2 3 4 5 6 7 8 9 11] [1 2 3 4 5 6 7 8 9 11]{7} 10{3} [1 2 3 4 5 6 7 8 9 11] [1 2 3 4 5 6 7 8 9 11]{7} 10{3} [1 2 3 4 5 6 7 8 9 11] [1 2 3 4 5 6 7 8 9 11]{7} 10{3}  [1 2 3 4 5 6 7 8 9 11]*) | ([1 2 3 4 5 6 7 8 9 11]* 10{1} [1 2 3 4 5 6 7 8 9 11]{2} [1 2 3 4 5 6 7 8 9 11] [1 2 3 4 5 6 7 8 9 11]{7} 10{3} [1 2 3 4 5 6 7 8 9 11] [1 2 3 4 5 6 7 8 9 11]{7} 10{3} [1 2 3 4 5 6 7 8 9 11] [1 2 3 4 5 6 7 8 9 11]{4} 10{4} [1 2 3 4 5 6 7 8 9 11]{2} [1 2 3 4 5 6 7 8 9 11] [1 2 3 4 5 6 7 8 9 11]{4} 10{4} [1 2 3 4 5 6 7 8 9 11]{2} [1 2 3 4 5 6 7 8 9 11] [1 2 3 4 5 6 7 8 9 11]{4} 10{4}  [1 2 3 4 5 6 7 8 9 11]*) | ([1 2 3 4 5 6 7 8 9 11]* 10{3} [1 2 3 4 5 6 7 8 9 11]{7} [1 2 3 4 5 6 7 8 9 11] 10{3} [1 2 3 4 5 6 7 8 9 11]{7} [1 2 3 4 5 6 7 8 9 11] 10{3} [1 2 3 4 5 6 7 8 9 11]{7} [1 2 3 4 5 6 7 8 9 11] 10{6} [1 2 3 4 5 6 7 8 9 11]{4} [1 2 3 4 5 6 7 8 9 11] [1 2 3 4 5 6 7 8 9 11]{3} 10{2} [1 2 3 4 5 6 7 8 9 11]{5} [1 2 3 4 5 6 7 8 9 11] [1 2 3 4 5 6 7 8 9 11]{3} 10{2}  [1 2 3 4 5 6 7 8 9 11]*) | ([1 2 3 4 5 6 7 8 9 11]* 10{4} [1 2 3 4 5 6 7 8 9 11]{2} [1 2 3 4 5 6 7 8 9 11] [1 2 3 4 5 6 7 8 9 11]{4} 10{4} [1 2 3 4 5 6 7 8 9 11]{2} [1 2 3 4 5 6 7 8 9 11] [1 2 3 4 5 6 7 8 9 11]{4} 10{4} [1 2 3 4 5 6 7 8 9 11]{2} [1 2 3 4 5 6 7 8 9 11] [1 2 3 4 5 6 7 8 9 11]{7} 10{3} [1 2 3 4 5 6 7 8 9 11] [1 2 3 4 5 6 7 8 9 11]{7} 10{3} [1 2 3 4 5 6 7 8 9 11] [1 2 3 4 5 6 7 8 9 11]{7} 10{1}  [1 2 3 4 5 6 7 8 9 11]*) | ([1 2 3 4 5 6 7 8 9 11]* 10{2} [1 2 3 4 5 6 7 8 9 11]{5} [1 2 3 4 5 6 7 8 9 11] [1 2 3 4 5 6 7 8 9 11]{3} 10{2} [1 2 3 4 5 6 7 8 9 11]{5} [1 2 3 4 5 6 7 8 9 11] 10{6} [1 2 3 4 5 6 7 8 9 11]{4} [1 2 3 4 5 6 7 8 9 11] 10{3} [1 2 3 4 5 6 7 8 9 11]{7} [1 2 3 4 5 6 7 8 9 11] 10{3} [1 2 3 4 5 6 7 8 9 11]{7} [1 2 3 4 5 6 7 8 9 11] 10{3}  [1 2 3 4 5 6 7 8 9 11]*) | ([1 2 3 4 5 6 7 8 9 11]* 10{1} [1 2 3 4 5 6 7 8 9 11]{7} [1 2 3 4 5 6 7 8 9 11] 10{3} [1 2 3 4 5 6 7 8 9 11]{7} [1 2 3 4 5 6 7 8 9 11] 10{3} [1 2 3 4 5 6 7 8 9 11]{7} [1 2 3 4 5 6 7 8 9 11] [1 2 3 4 5 6 7 8 9 11]{2} 10{4} [1 2 3 4 5 6 7 8 9 11]{4} [1 2 3 4 5 6 7 8 9 11] [1 2 3 4 5 6 7 8 9 11]{2} 10{4} [1 2 3 4 5 6 7 8 9 11]{4} [1 2 3 4 5 6 7 8 9 11] [1 2 3 4 5 6 7 8 9 11]{2} 10{4}  [1 2 3 4 5 6 7 8 9 11]*) | ([1 2 3 4 5 6 7 8 9 11]* 10{3} [1 2 3 4 5 6 7 8 9 11] [1 2 3 4 5 6 7 8 9 11]{7} 10{3} [1 2 3 4 5 6 7 8 9 11] [1 2 3 4 5 6 7 8 9 11]{7} 10{3} [1 2 3 4 5 6 7 8 9 11] [1 2 3 4 5 6 7 8 9 11]{4} 10{6} [1 2 3 4 5 6 7 8 9 11] [1 2 3 4 5 6 7 8 9 11]{5} 10{2} [1 2 3 4 5 6 7 8 9 11]{3} [1 2 3 4 5 6 7 8 9 11] [1 2 3 4 5 6 7 8 9 11]{5} 10{2}  [1 2 3 4 5 6 7 8 9 11]*) )",
];
